p edge 119 631
e 1 5
e 1 15
e 1 16
e 1 20
e 1 21
e 1 57
e 1 62
e 1 80
e 1 88
e 1 93
e 1 112
e 2 6
e 2 24
e 2 30
e 2 41
e 2 54
e 2 55
e 2 77
e 2 91
e 3 22
e 3 31
e 3 42
e 3 44
e 3 67
e 3 71
e 3 89
e 3 90
e 3 99
e 3 102
e 3 104
e 3 114
e 4 12
e 4 38
e 4 49
e 4 50
e 4 61
e 4 63
e 4 84
e 4 95
e 4 98
e 4 106
e 5 26
e 5 32
e 5 34
e 5 38
e 5 53
e 5 56
e 5 72
e 5 76
e 5 84
e 6 11
e 6 13
e 6 14
e 6 24
e 6 41
e 6 55
e 6 60
e 6 86
e 6 91
e 7 10
e 7 21
e 7 25
e 7 28
e 7 48
e 7 51
e 7 64
e 7 66
e 7 75
e 7 83
e 7 117
e 7 119
e 8 18
e 8 38
e 8 46
e 8 53
e 8 71
e 8 73
e 8 85
e 8 97
e 8 99
e 8 103
e 9 17
e 9 31
e 9 33
e 9 38
e 9 51
e 9 58
e 9 69
e 9 70
e 9 100
e 9 115
e 9 118
e 10 21
e 10 25
e 10 35
e 10 36
e 10 48
e 10 64
e 10 75
e 10 83
e 10 117
e 10 119
e 11 13
e 11 14
e 11 30
e 11 41
e 11 54
e 11 55
e 11 60
e 11 86
e 12 19
e 12 23
e 12 29
e 12 35
e 12 43
e 12 68
e 12 87
e 12 96
e 12 101
e 12 116
e 13 14
e 13 30
e 13 41
e 13 54
e 13 55
e 13 60
e 13 77
e 13 86
e 14 24
e 14 41
e 14 54
e 14 55
e 14 60
e 14 77
e 14 86
e 15 37
e 15 39
e 15 52
e 15 53
e 15 59
e 15 65
e 15 66
e 15 87
e 15 94
e 15 107
e 15 111
e 16 26
e 16 27
e 16 34
e 16 47
e 16 57
e 16 62
e 16 65
e 16 80
e 16 88
e 16 93
e 16 112
e 17 28
e 17 31
e 17 33
e 17 34
e 17 42
e 17 69
e 17 79
e 17 100
e 17 102
e 17 114
e 18 20
e 18 27
e 18 53
e 18 71
e 18 73
e 18 85
e 18 92
e 18 97
e 18 99
e 19 23
e 19 29
e 19 35
e 19 43
e 19 61
e 19 80
e 19 89
e 19 96
e 19 101
e 19 113
e 19 116
e 20 47
e 20 56
e 20 57
e 20 62
e 20 65
e 20 67
e 20 80
e 20 88
e 20 93
e 20 112
e 21 25
e 21 48
e 21 75
e 21 83
e 21 117
e 21 119
e 22 39
e 22 42
e 22 44
e 22 67
e 22 74
e 22 89
e 22 90
e 22 102
e 22 104
e 23 27
e 23 35
e 23 38
e 23 43
e 23 44
e 23 57
e 23 59
e 23 94
e 23 96
e 23 101
e 23 116
e 24 30
e 24 54
e 24 60
e 24 77
e 24 91
e 25 28
e 25 31
e 25 48
e 25 50
e 25 75
e 25 83
e 25 117
e 25 119
e 26 34
e 26 51
e 26 56
e 26 64
e 26 72
e 26 76
e 26 91
e 26 92
e 26 108
e 27 38
e 27 47
e 27 65
e 27 72
e 27 76
e 27 87
e 27 94
e 27 112
e 28 32
e 28 58
e 28 68
e 28 75
e 28 79
e 28 88
e 28 108
e 28 119
e 29 37
e 29 39
e 29 52
e 29 65
e 29 74
e 29 94
e 29 107
e 29 111
e 30 41
e 30 54
e 30 55
e 30 77
e 30 91
e 30 92
e 31 33
e 31 51
e 31 58
e 31 70
e 31 79
e 31 105
e 31 109
e 32 36
e 32 69
e 32 78
e 32 79
e 32 84
e 32 100
e 32 109
e 32 113
e 32 114
e 33 38
e 33 51
e 33 69
e 33 90
e 33 105
e 33 109
e 33 112
e 33 115
e 34 37
e 34 56
e 34 65
e 34 72
e 34 76
e 34 87
e 34 92
e 34 105
e 34 108
e 35 43
e 35 80
e 35 88
e 35 96
e 35 101
e 35 116
e 36 49
e 36 64
e 36 97
e 36 110
e 36 114
e 36 115
e 37 39
e 37 52
e 37 57
e 37 59
e 37 65
e 37 94
e 37 103
e 37 107
e 37 111
e 38 51
e 38 58
e 38 70
e 38 81
e 38 105
e 38 115
e 39 52
e 39 59
e 39 65
e 39 89
e 39 97
e 39 111
e 39 116
e 40 45
e 40 46
e 40 66
e 40 73
e 40 74
e 40 81
e 40 82
e 40 106
e 40 118
e 41 55
e 41 60
e 41 86
e 42 44
e 42 67
e 42 89
e 42 90
e 42 102
e 42 104
e 42 105
e 43 70
e 43 96
e 43 101
e 43 104
e 43 110
e 43 116
e 44 67
e 44 76
e 44 87
e 44 89
e 44 90
e 44 96
e 44 102
e 44 104
e 45 46
e 45 52
e 45 66
e 45 74
e 45 81
e 45 82
e 45 85
e 45 99
e 45 116
e 45 118
e 46 66
e 46 74
e 46 81
e 46 82
e 46 101
e 46 103
e 46 110
e 46 118
e 47 57
e 47 59
e 47 62
e 47 80
e 47 88
e 47 93
e 47 112
e 48 75
e 48 83
e 48 113
e 48 117
e 48 119
e 49 50
e 49 61
e 49 63
e 49 76
e 49 84
e 49 95
e 49 98
e 49 106
e 49 108
e 49 112
e 50 51
e 50 61
e 50 63
e 50 78
e 50 95
e 50 98
e 50 106
e 51 70
e 51 93
e 51 105
e 51 109
e 52 59
e 52 73
e 52 94
e 52 97
e 52 99
e 52 107
e 53 71
e 53 73
e 53 85
e 53 97
e 53 99
e 53 103
e 53 111
e 54 77
e 54 91
e 55 60
e 55 86
e 56 68
e 56 72
e 56 76
e 56 87
e 56 92
e 56 108
e 57 62
e 57 88
e 57 93
e 57 106
e 57 112
e 58 68
e 58 70
e 58 76
e 58 100
e 58 105
e 58 109
e 58 114
e 58 115
e 59 65
e 59 66
e 59 88
e 59 94
e 59 107
e 59 111
e 60 77
e 60 86
e 60 91
e 61 63
e 61 78
e 61 84
e 61 95
e 61 98
e 61 106
e 61 109
e 62 80
e 62 88
e 62 93
e 62 95
e 62 102
e 62 113
e 63 92
e 63 95
e 63 98
e 63 102
e 63 105
e 63 106
e 64 70
e 64 113
e 64 118
e 64 119
e 65 76
e 65 94
e 65 107
e 65 111
e 66 68
e 66 74
e 66 81
e 66 82
e 66 94
e 66 118
e 67 87
e 67 89
e 67 90
e 67 102
e 67 103
e 67 104
e 68 69
e 68 72
e 68 100
e 68 108
e 68 110
e 69 79
e 69 100
e 69 110
e 69 114
e 70 79
e 70 109
e 70 115
e 71 73
e 71 81
e 71 85
e 71 97
e 71 99
e 71 103
e 71 118
e 72 76
e 72 83
e 72 87
e 72 96
e 72 108
e 73 85
e 73 87
e 73 99
e 73 103
e 73 107
e 74 81
e 74 82
e 74 118
e 75 83
e 75 84
e 75 117
e 75 119
e 76 79
e 76 108
e 77 86
e 77 91
e 77 92
e 78 79
e 78 84
e 78 95
e 78 98
e 78 106
e 78 108
e 79 84
e 79 87
e 79 115
e 80 85
e 80 88
e 80 93
e 80 112
e 81 82
e 81 118
e 82 85
e 82 103
e 82 113
e 82 117
e 82 118
e 83 117
e 83 119
e 84 98
e 84 100
e 84 108
e 85 97
e 85 99
e 85 103
e 86 91
e 87 88
e 87 99
e 88 112
e 89 90
e 89 102
e 89 104
e 90 97
e 90 102
e 90 104
e 90 110
e 92 95
e 92 105
e 93 112
e 93 115
e 93 116
e 93 117
e 94 107
e 94 111
e 95 98
e 95 106
e 96 101
e 96 107
e 96 110
e 96 116
e 97 99
e 97 103
e 97 110
e 98 100
e 98 106
e 99 103
e 99 111
e 100 109
e 100 114
e 100 115
e 101 103
e 101 113
e 101 116
e 102 104
e 104 111
e 104 116
e 105 109
e 105 115
e 106 109
e 107 111
e 107 112
e 108 119
e 109 115
e 110 114
e 113 114
e 115 118
e 117 119
